c nIsolatedPIs 0
c maxPI 32
p cnf 199 502
c gate 33 -6 -22 0
-6 -33 0
-22 -33 0
6 22 33 0
c gate 34 -7 -23 0
-7 -34 0
-23 -34 0
7 23 34 0
c gate 35 7 23 0
7 -35 0
23 -35 0
-7 -23 35 0
c gate 36 -34 -35 0
-34 -36 0
-35 -36 0
34 35 36 0
c gate 37 33 36 0
33 -37 0
36 -37 0
-33 -36 37 0
c gate 38 -9 -25 0
-9 -38 0
-25 -38 0
9 25 38 0
c gate 39 9 25 0
9 -39 0
25 -39 0
-9 -25 39 0
c gate 40 -38 -39 0
-38 -40 0
-39 -40 0
38 39 40 0
c gate 41 -6 22 0
-6 -41 0
22 -41 0
6 -22 41 0
c gate 42 2 -18 0
2 -42 0
-18 -42 0
-2 18 42 0
c gate 43 -1 17 0
-1 -43 0
17 -43 0
1 -17 43 0
c gate 44 -42 43 0
-42 -44 0
43 -44 0
42 -43 44 0
c gate 45 -3 19 0
-3 -45 0
19 -45 0
3 -19 45 0
c gate 46 -2 18 0
-2 -46 0
18 -46 0
2 -18 46 0
c gate 47 -45 -46 0
-45 -47 0
-46 -47 0
45 46 47 0
c gate 48 -44 47 0
-44 -48 0
47 -48 0
44 -47 48 0
c gate 49 4 -20 0
4 -49 0
-20 -49 0
-4 20 49 0
c gate 50 3 -19 0
3 -50 0
-19 -50 0
-3 19 50 0
c gate 51 -49 -50 0
-49 -51 0
-50 -51 0
49 50 51 0
c gate 52 -48 51 0
-48 -52 0
51 -52 0
48 -51 52 0
c gate 53 -5 21 0
-5 -53 0
21 -53 0
5 -21 53 0
c gate 54 -4 20 0
-4 -54 0
20 -54 0
4 -20 54 0
c gate 55 -53 -54 0
-53 -55 0
-54 -55 0
53 54 55 0
c gate 56 -52 55 0
-52 -56 0
55 -56 0
52 -55 56 0
c gate 57 5 -21 0
5 -57 0
-21 -57 0
-5 21 57 0
c gate 58 6 -22 0
6 -58 0
-22 -58 0
-6 22 58 0
c gate 59 -57 -58 0
-57 -59 0
-58 -59 0
57 58 59 0
c gate 60 -56 59 0
-56 -60 0
59 -60 0
56 -59 60 0
c gate 61 -41 -60 0
-41 -61 0
-60 -61 0
41 60 61 0
c gate 62 -36 -61 0
-36 -62 0
-61 -62 0
36 61 62 0
c gate 63 -8 -24 0
-8 -63 0
-24 -63 0
8 24 63 0
c gate 64 8 24 0
8 -64 0
24 -64 0
-8 -24 64 0
c gate 65 -63 -64 0
-63 -65 0
-64 -65 0
63 64 65 0
c gate 66 -7 23 0
-7 -66 0
23 -66 0
7 -23 66 0
c gate 67 -65 -66 0
-65 -67 0
-66 -67 0
65 66 67 0
c gate 68 -62 67 0
-62 -68 0
67 -68 0
62 -67 68 0
c gate 69 -40 68 0
-40 -69 0
68 -69 0
40 -68 69 0
c gate 70 -10 -26 0
-10 -70 0
-26 -70 0
10 26 70 0
c gate 71 10 26 0
10 -71 0
26 -71 0
-10 -26 71 0
c gate 72 -70 -71 0
-70 -72 0
-71 -72 0
70 71 72 0
c gate 73 69 -72 0
69 -73 0
-72 -73 0
-69 72 73 0
c gate 74 -11 -27 0
-11 -74 0
-27 -74 0
11 27 74 0
c gate 75 11 27 0
11 -75 0
27 -75 0
-11 -27 75 0
c gate 76 -74 -75 0
-74 -76 0
-75 -76 0
74 75 76 0
c gate 77 73 76 0
73 -77 0
76 -77 0
-73 -76 77 0
c gate 78 36 61 0
36 -78 0
61 -78 0
-36 -61 78 0
c gate 79 -62 -78 0
-62 -79 0
-78 -79 0
62 78 79 0
c gate 80 36 -58 0
36 -80 0
-58 -80 0
-36 58 80 0
c gate 81 -36 58 0
-36 -81 0
58 -81 0
36 -58 81 0
c gate 82 -80 -81 0
-80 -82 0
-81 -82 0
80 81 82 0
c gate 83 -79 -82 0
-79 -83 0
-82 -83 0
79 82 83 0
c gate 84 15 31 0
15 -84 0
31 -84 0
-15 -31 84 0
c gate 85 -15 -31 0
-15 -85 0
-31 -85 0
15 31 85 0
c gate 86 14 30 0
14 -86 0
30 -86 0
-14 -30 86 0
c gate 87 -14 -30 0
-14 -87 0
-30 -87 0
14 30 87 0
c gate 88 -13 -29 0
-13 -88 0
-29 -88 0
13 29 88 0
c gate 89 -87 -88 0
-87 -89 0
-88 -89 0
87 88 89 0
c gate 90 12 28 0
12 -90 0
28 -90 0
-12 -28 90 0
c gate 91 13 29 0
13 -91 0
29 -91 0
-13 -29 91 0
c gate 92 -90 -91 0
-90 -92 0
-91 -92 0
90 91 92 0
c gate 93 89 -92 0
89 -93 0
-92 -93 0
-89 92 93 0
c gate 94 -86 -93 0
-86 -94 0
-93 -94 0
86 93 94 0
c gate 95 -38 -63 0
-38 -95 0
-63 -95 0
38 63 95 0
c gate 96 -3 -19 0
-3 -96 0
-19 -96 0
3 19 96 0
c gate 97 2 18 0
2 -97 0
18 -97 0
-2 -18 97 0
c gate 98 -2 -18 0
-2 -98 0
-18 -98 0
2 18 98 0
c gate 99 1 17 0
1 -99 0
17 -99 0
-1 -17 99 0
c gate 100 -98 99 0
-98 -100 0
99 -100 0
98 -99 100 0
c gate 101 -97 -100 0
-97 -101 0
-100 -101 0
97 100 101 0
c gate 102 -96 -101 0
-96 -102 0
-101 -102 0
96 101 102 0
c gate 103 4 20 0
4 -103 0
20 -103 0
-4 -20 103 0
c gate 104 3 19 0
3 -104 0
19 -104 0
-3 -19 104 0
c gate 105 -103 -104 0
-103 -105 0
-104 -105 0
103 104 105 0
c gate 106 -102 105 0
-102 -106 0
105 -106 0
102 -105 106 0
c gate 107 -4 -20 0
-4 -107 0
-20 -107 0
4 20 107 0
c gate 108 -5 -21 0
-5 -108 0
-21 -108 0
5 21 108 0
c gate 109 -107 -108 0
-107 -109 0
-108 -109 0
107 108 109 0
c gate 110 -106 109 0
-106 -110 0
109 -110 0
106 -109 110 0
c gate 111 6 22 0
6 -111 0
22 -111 0
-6 -22 111 0
c gate 112 5 21 0
5 -112 0
21 -112 0
-5 -21 112 0
c gate 113 -111 -112 0
-111 -113 0
-112 -113 0
111 112 113 0
c gate 114 -110 113 0
-110 -114 0
113 -114 0
110 -113 114 0
c gate 115 -33 -114 0
-33 -115 0
-114 -115 0
33 114 115 0
c gate 116 -34 115 0
-34 -116 0
115 -116 0
34 -115 116 0
c gate 117 -35 -64 0
-35 -117 0
-64 -117 0
35 64 117 0
c gate 118 -116 117 0
-116 -118 0
117 -118 0
116 -117 118 0
c gate 119 95 -118 0
95 -119 0
-118 -119 0
-95 118 119 0
c gate 120 -39 -119 0
-39 -120 0
-119 -120 0
39 119 120 0
c gate 121 -70 -120 0
-70 -121 0
-120 -121 0
70 120 121 0
c gate 122 -71 -75 0
-71 -122 0
-75 -122 0
71 75 122 0
c gate 123 -121 122 0
-121 -123 0
122 -123 0
121 -122 123 0
c gate 124 -74 -123 0
-74 -124 0
-123 -124 0
74 123 124 0
c gate 125 -12 -28 0
-12 -125 0
-28 -125 0
12 28 125 0
c gate 126 89 -125 0
89 -126 0
-125 -126 0
-89 125 126 0
c gate 127 124 126 0
124 -127 0
126 -127 0
-124 -126 127 0
c gate 128 94 -127 0
94 -128 0
-127 -128 0
-94 127 128 0
c gate 129 -85 -128 0
-85 -129 0
-128 -129 0
85 128 129 0
c gate 130 -84 -129 0
-84 -130 0
-129 -130 0
84 129 130 0
c gate 131 -16 -32 0
-16 -131 0
-32 -131 0
16 32 131 0
c gate 132 16 32 0
16 -132 0
32 -132 0
-16 -32 132 0
c gate 133 -131 -132 0
-131 -133 0
-132 -133 0
131 132 133 0
c gate 134 -130 -133 0
-130 -134 0
-133 -134 0
130 133 134 0
c gate 135 -84 94 0
-84 -135 0
94 -135 0
84 -94 135 0
c gate 136 -85 -135 0
-85 -136 0
-135 -136 0
85 135 136 0
c gate 137 134 -136 0
134 -137 0
-136 -137 0
-134 136 137 0
c gate 138 -90 -125 0
-90 -138 0
-125 -138 0
90 125 138 0
c gate 139 124 138 0
124 -139 0
138 -139 0
-124 -138 139 0
c gate 140 -86 -87 0
-86 -140 0
-87 -140 0
86 87 140 0
c gate 141 -88 -91 0
-88 -141 0
-91 -141 0
88 91 141 0
c gate 142 140 141 0
140 -142 0
141 -142 0
-140 -141 142 0
c gate 143 139 -142 0
139 -143 0
-142 -143 0
-139 142 143 0
c gate 144 -84 -85 0
-84 -144 0
-85 -144 0
84 85 144 0
c gate 145 94 -144 0
94 -145 0
-144 -145 0
-94 144 145 0
c gate 146 127 145 0
127 -146 0
145 -146 0
-127 -145 146 0
c gate 147 -143 -146 0
-143 -147 0
-146 -147 0
143 146 147 0
c gate 148 -137 147 0
-137 -148 0
147 -148 0
137 -147 148 0
c gate 149 34 -64 0
34 -149 0
-64 -149 0
-34 64 149 0
c gate 150 95 -149 0
95 -150 0
-149 -150 0
-95 149 150 0
c gate 151 -39 -71 0
-39 -151 0
-71 -151 0
39 71 151 0
c gate 152 -150 151 0
-150 -152 0
151 -152 0
150 -151 152 0
c gate 153 -70 -74 0
-70 -153 0
-74 -153 0
70 74 153 0
c gate 154 -152 153 0
-152 -154 0
153 -154 0
152 -153 154 0
c gate 155 -75 -154 0
-75 -155 0
-154 -155 0
75 154 155 0
c gate 156 -138 155 0
-138 -156 0
155 -156 0
138 -155 156 0
c gate 157 124 -156 0
124 -157 0
-156 -157 0
-124 156 157 0
c gate 158 138 -155 0
138 -158 0
-155 -158 0
-138 155 158 0
c gate 159 -124 -158 0
-124 -159 0
-158 -159 0
124 158 159 0
c gate 160 -157 -159 0
-157 -160 0
-159 -160 0
157 159 160 0
c gate 161 148 -160 0
148 -161 0
-160 -161 0
-148 160 161 0
c gate 162 36 65 0
36 -162 0
65 -162 0
-36 -65 162 0
c gate 163 -115 162 0
-115 -163 0
162 -163 0
115 -162 163 0
c gate 164 -139 -163 0
-139 -164 0
-163 -164 0
139 163 164 0
c gate 165 -161 -164 0
-161 -165 0
-164 -165 0
161 164 165 0
c gate 166 79 82 0
79 -166 0
82 -166 0
-79 -82 166 0
c gate 167 -83 -166 0
-83 -167 0
-166 -167 0
83 166 167 0
c gate 168 129 135 0
129 -168 0
135 -168 0
-129 -135 168 0
c gate 169 -134 168 0
-134 -169 0
168 -169 0
134 -168 169 0
c gate 170 167 -169 0
167 -170 0
-169 -170 0
-167 169 170 0
c gate 171 165 170 0
165 -171 0
170 -171 0
-165 -170 171 0
c gate 172 -83 -171 0
-83 -172 0
-171 -172 0
83 171 172 0
c gate 173 -41 65 0
-41 -173 0
65 -173 0
41 -65 173 0
c gate 174 166 173 0
166 -174 0
173 -174 0
-166 -173 174 0
c gate 175 172 -174 0
172 -175 0
-174 -175 0
-172 174 175 0
c gate 176 -68 175 0
-68 -176 0
175 -176 0
68 -175 176 0
c gate 177 -73 -176 0
-73 -177 0
-176 -177 0
73 176 177 0
c gate 178 -77 -177 0
-77 -178 0
-177 -178 0
77 177 178 0
c gate 179 -10 26 0
-10 -179 0
26 -179 0
10 -26 179 0
c gate 180 8 -24 0
8 -180 0
-24 -180 0
-8 24 180 0
c gate 181 -40 180 0
-40 -181 0
180 -181 0
40 -180 181 0
c gate 182 9 -25 0
9 -182 0
-25 -182 0
-9 25 182 0
c gate 183 -181 -182 0
-181 -183 0
-182 -183 0
181 182 183 0
c gate 184 -69 183 0
-69 -184 0
183 -184 0
69 -183 184 0
c gate 185 -179 -184 0
-179 -185 0
-184 -185 0
179 184 185 0
c gate 186 10 -26 0
10 -186 0
-26 -186 0
-10 26 186 0
c gate 187 -76 -186 0
-76 -187 0
-186 -187 0
76 186 187 0
c gate 188 -185 187 0
-185 -188 0
187 -188 0
185 -187 188 0
c gate 189 -178 -188 0
-178 -189 0
-188 -189 0
178 188 189 0
c gate 190 -133 -138 0
-133 -190 0
-138 -190 0
133 138 190 0
c gate 191 -140 -141 0
-140 -191 0
-141 -191 0
140 141 191 0
c gate 192 -144 191 0
-144 -192 0
191 -192 0
144 -191 192 0
c gate 193 190 192 0
190 -193 0
192 -193 0
-190 -192 193 0
c gate 194 188 193 0
188 -194 0
193 -194 0
-188 -193 194 0
c gate 195 -189 -194 0
-189 -195 0
-194 -195 0
189 194 195 0
c gate 196 -33 114 0
-33 -196 0
114 -196 0
33 -114 196 0
c gate 197 -37 -196 0
-37 -197 0
-196 -197 0
37 196 197 0
c gate 198 -195 -197 0
-195 -198 0
-197 -198 0
195 197 198 0
c gate 199 -37 -198 0
-37 -199 0
-198 -199 0
37 198 199 0
c PO
-199 0
